! B3LYP
! def2-qzvp
*xyzfile  0  1
%scf
MaxIter  500
end
! 0
! 1
! StrongSCF
! defgrid2
! RKS
%pal
nprocs  20
end
