! B3LYP
! def2-qzvp
*xyzfile  0  3
%scf
MaxIter  500
end
! 0
! 3
! StrongSCF
! defgrid2
! UKS
%pal
nprocs  20
end
